\* MasterProblem *\
Minimize
OBJ: x1 + x10 + x11 + x12 + x2 + x3 + x4 + x5 + x7 + x8 + x9
Subject To
C0: x1 + x11 + 3 x12 + 5 x7 + x8 >= 48
C1: x2 + 2 x8 >= 35
C2: x12 + x3 + 2 x9 >= 24
C3: 2 x10 + x4 >= 10
C4: x11 + x5 >= 8
End
